p edge 35 140 25
e 7 19
e 7 9
e 7 18
e 7 27
e 7 1
e 7 22
e 7 15
e 7 10
e 19 9
e 19 29
e 19 5
e 19 14
e 19 26
e 19 15
e 19 3
e 11 35
e 11 8
e 11 2
e 11 20
e 11 13
e 11 17
e 11 1
e 11 14
e 35 30
e 35 22
e 35 1
e 35 16
e 35 10
e 35 15
e 35 17
e 27 31
e 27 10
e 27 28
e 27 3
e 27 30
e 27 32
e 27 6
e 31 18
e 31 29
e 31 5
e 31 6
e 31 25
e 31 28
e 31 20
e 17 30
e 17 12
e 17 34
e 17 18
e 17 2
e 17 26
e 30 24
e 30 28
e 30 3
e 30 20
e 30 25
e 1 6
e 1 10
e 1 33
e 1 21
e 1 32
e 6 29
e 6 26
e 6 2
e 6 4
e 6 34
e 9 23
e 9 34
e 9 20
e 9 13
e 9 15
e 9 8
e 4 32
e 4 16
e 4 25
e 4 22
e 4 12
e 4 3
e 4 21
e 32 21
e 32 24
e 32 26
e 32 5
e 32 23
e 18 14
e 18 2
e 18 28
e 18 16
e 18 29
e 29 10
e 29 28
e 29 26
e 29 34
e 10 13
e 10 8
e 10 25
e 12 24
e 12 8
e 12 2
e 12 16
e 12 34
e 12 20
e 24 16
e 24 23
e 24 14
e 24 3
e 24 22
e 5 33
e 5 21
e 5 14
e 5 23
e 5 25
e 14 20
e 14 22
e 14 33
e 8 2
e 8 33
e 8 16
e 8 25
e 16 26
e 16 34
e 3 33
e 3 28
e 3 22
e 33 15
e 33 21
e 33 28
e 21 23
e 21 34
e 21 15
e 23 13
e 23 28
e 23 20
e 25 13
e 25 22
e 2 13
e 2 26
e 20 13
e 26 34
e 13 15
e 22 15
